400
400
280
280
280
279
279
279
279
278
277
277
277
277
276
276
276
274
274
273
273
272
272
272
272
271
270
270
269
268
268
268
267
267
267
266
264
263
263
262
262
261
259
258
258
258
257
257
256
256
256
254
254
254
254
254
254
254
254
254
253
253
253
253
252
252
252
252
252
251
251
250
250
249
249
248
248
247
247
246
246
245
244
244
244
243
243
243
243
242
242
242
242
241
241
240
240
240
238
238
237
237
237
236
235
235
235
235
234
233
232
232
232
232
231
231
230
229
228
227
227
226
226
226
226
225
225
225
225
224
224
224
224
223
221
221
221
221
220
220
220
219
219
219
219
219
218
218
217
216
216
215
215
214
213
212
211
211
211
211
211
211
210
209
209
209
208
208
208
208
207
207
207
207
206
206
205
203
203
202
202
200
199
199
198
198
197
197
196
195
195
194
194
193
192
192
192
192
191
191
191
191
190
189
189
188
188
188
188
187
187
186
186
186
186
186
185
185
185
185
183
183
182
182
181
179
179
179
178
177
177
176
175
175
174
174
173
173
172
172
170
170
168
168
168
167
165
164
164
162
162
162
162
162
161
161
161
161
160
159
159
158
158
158
158
157
155
155
155
154
154
154
154
153
153
152
152
152
151
151
151
150
150
150
149
149
148
147
147
147
146
146
145
144
143
143
143
143
143
142
142
141
141
141
140
140
139
139
137
136
136
136
134
134
133
132
131
131
131
131
129
129
129
128
128
128
127
126
125
125
124
124
123
122
122
121
120
120
118
118
118
117
117
116
116
116
115
115
115
114
114
113
111
111
109
109
109
109
109
109
108
108
108
107
107
106
105
105
104
104
104
103
102
102
102
100
98
98
98
98
98
97
97
95
95
94
92
92
92
91
91
90
90
89
87
86
85
85
82
82
82
80
